SECTION Graph
Nodes 1011
Edges 2010
E 1 520 5
E 1 542 1
E 1 553 1
E 1 575 6
E 2 375 34
E 2 542 6
E 2 575 1
E 3 127 1
E 3 558 6
E 4 6 1
E 4 309 5
E 4 334 4
E 4 343 6
E 5 365 1
E 6 8 1
E 6 306 5
E 6 339 6
E 7 9 1
E 7 339 6
E 7 365 1
E 8 303 5
E 8 335 6
E 9 335 6
E 10 11 1
E 10 139 8
E 10 808 1
E 10 809 1
E 11 22 2
E 11 140 8
E 11 813 1
E 12 13 1
E 12 142 8
E 12 827 1
E 12 828 1
E 13 143 8
E 13 830 1
E 13 837 1
E 14 18 1
E 14 859 1
E 14 868 1
E 15 19 1
E 15 876 1
E 16 20 1
E 16 128 1
E 16 749 25
E 16 854 5
E 17 21 1
E 17 131 1
E 17 881 5
E 17 940 30
E 18 23 1
E 18 856 1
E 19 24 1
E 19 874 1
E 20 25 1
E 20 743 25
E 20 842 1
E 21 26 1
E 21 137 1
E 21 935 30
E 22 821 1
E 22 828 1
E 22 847 8
E 23 695 41
E 23 854 1
E 24 868 2
E 24 872 1
E 25 138 1
E 25 736 25
E 25 805 8
E 26 144 1
E 26 841 8
E 26 930 30
E 27 28 2
E 27 944 1
E 27 945 1
E 27 966 8
E 28 954 1
E 28 957 1
E 28 969 8
E 29 970 5
E 29 974 1
E 30 946 9
E 30 965 1
E 30 967 1
E 30 968 1
E 31 145 1
E 31 973 1
E 32 33 1
E 32 541 18
E 32 602 1
E 32 630 8
E 33 604 1
E 33 610 1
E 33 634 8
E 34 644 5
E 34 664 1
E 34 677 1
E 34 678 1
E 35 582 18
E 35 630 1
E 35 639 1
E 35 640 1
E 36 146 1
E 36 643 1
E 36 654 1
E 36 658 2
E 37 38 2
E 37 280 1
E 37 281 1
E 37 305 9
E 38 285 1
E 38 293 1
E 38 313 9
E 39 313 6
E 39 322 2
E 39 330 1
E 39 347 5
E 40 281 9
E 40 297 4
E 40 305 1
E 40 320 6
E 41 293 9
E 41 313 1
E 41 317 1
E 41 436 29
E 42 897 5
E 42 907 1
E 42 915 2
E 42 923 6
E 43 44 1
E 43 950 2
E 43 954 1
E 43 957 1
E 44 953 2
E 44 960 1
E 45 907 6
E 45 919 1
E 45 923 1
E 45 927 3
E 46 915 6
E 46 923 2
E 46 941 3
E 46 948 4
E 47 48 2
E 47 394 5
E 47 413 1
E 47 450 6
E 48 404 5
E 48 435 2
E 48 463 6
E 49 50 2
E 49 450 9
E 49 511 1
E 49 518 1
E 50 463 9
E 50 530 1
E 50 536 2
E 51 413 6
E 51 430 2
E 51 450 1
E 51 511 9
E 52 435 6
E 52 463 2
E 52 524 7
E 52 536 9
E 53 207 1
E 53 222 6
E 54 222 9
E 54 241 1
E 55 222 3
E 56 207 6
E 56 222 1
E 56 234 7
E 56 241 9
E 57 59 1
E 57 873 5
E 57 892 6
E 57 898 9
E 58 905 1
E 58 906 1
E 58 913 2
E 58 929 9
E 59 61 1
E 59 870 5
E 59 891 6
E 60 62 1
E 60 891 6
E 60 905 1
E 60 906 1
E 61 818 20
E 61 865 5
E 61 888 6
E 62 855 20
E 62 888 6
E 62 903 1
E 63 901 6
E 63 911 1
E 63 918 2
E 63 924 5
E 64 887 5
E 64 890 4
E 64 901 1
E 64 911 6
E 65 893 5
E 65 901 2
E 65 918 6
E 66 745 1
E 66 755 1
E 67 69 1
E 67 794 1
E 67 818 5
E 67 865 20
E 68 70 1
E 68 745 1
E 68 755 1
E 68 756 1
E 69 71 1
E 69 789 1
E 69 814 5
E 70 719 5
E 70 739 1
E 70 750 1
E 71 777 5
E 71 786 1
E 71 810 5
E 72 102 2
E 72 444 1
E 72 459 1
E 72 460 1
E 73 109 2
E 73 459 1
E 73 473 1
E 73 474 1
E 74 75 1
E 74 544 1
E 74 545 1
E 74 571 5
E 75 550 1
E 75 577 5
E 75 594 11
E 76 321 14
E 76 331 10
E 76 377 1
E 76 378 1
E 77 340 10
E 77 377 1
E 77 391 1
E 77 429 9
E 78 79 1
E 78 448 1
E 78 449 1
E 78 497 5
E 79 455 1
E 79 505 5
E 79 523 9
E 80 512 6
E 80 538 1
E 80 548 1
E 80 549 1
E 81 547 1
E 81 548 1
E 81 559 1
E 81 636 25
E 82 83 1
E 82 560 10
E 82 590 1
E 82 596 1
E 83 564 10
E 83 599 1
E 83 711 25
E 84 325 1
E 84 326 1
E 84 337 2
E 84 367 10
E 85 87 5
E 85 326 10
E 85 367 1
E 85 368 1
E 86 87 10
E 86 88 5
E 86 311 1
E 86 326 5
E 87 328 4
E 87 349 1
E 88 89 10
E 88 90 1
E 88 301 1
E 89 91 1
E 89 328 1
E 89 329 1
E 90 91 10
E 90 299 1
E 90 300 1
E 91 93 1
E 91 345 6
E 92 286 2
E 92 287 2
E 92 299 1
E 92 300 1
E 93 300 10
E 93 316 2
E 93 342 6
E 94 603 1
E 94 619 5
E 95 147 1
E 95 627 8
E 95 659 1
E 95 679 2
E 96 147 1
E 96 635 8
E 96 696 2
E 96 697 2
E 97 480 33
E 97 616 1
E 97 622 1
E 97 623 1
E 98 631 2
E 98 645 1
E 99 122 1
E 99 359 1
E 99 360 1
E 100 123 1
E 100 381 1
E 101 102 1
E 101 153 8
E 101 428 1
E 101 444 2
E 102 154 8
E 102 443 1
E 103 104 1
E 103 157 8
E 103 458 1
E 103 482 2
E 104 158 8
E 104 492 2
E 104 493 2
E 105 124 1
E 105 148 1
E 105 290 26
E 105 353 5
E 106 125 1
E 106 402 5
E 106 415 2
E 106 457 6
E 107 122 1
E 107 353 1
E 108 123 1
E 108 362 1
E 108 372 1
E 109 410 8
E 109 443 1
E 109 458 1
E 110 124 1
E 110 152 1
E 110 340 10
E 110 411 5
E 111 125 1
E 111 158 2
E 111 472 6
E 111 492 8
E 112 238 1
E 112 252 6
E 112 261 11
E 113 114 1
E 113 208 29
E 113 266 2
E 113 279 4
E 114 270 2
E 114 277 2
E 114 282 4
E 115 252 2
E 115 259 1
E 115 295 15
E 116 118 1
E 116 167 6
E 116 169 10
E 117 172 1
E 117 173 1
E 117 177 2
E 117 193 9
E 118 120 1
E 118 166 6
E 119 121 1
E 119 166 6
E 119 172 1
E 119 173 1
E 120 165 6
E 121 165 6
E 121 170 1
E 122 356 1
E 123 376 1
E 124 295 26
E 124 383 1
E 125 164 2
E 125 465 6
E 126 962 25
E 126 964 24
E 127 553 6
E 127 575 1
E 128 842 1
E 128 845 1
E 128 856 5
E 129 130 1
E 129 134 1
E 129 848 2
E 129 872 5
E 130 853 1
E 130 858 1
E 130 874 5
E 131 137 1
E 131 862 1
E 131 880 5
E 132 133 1
E 132 139 1
E 132 842 1
E 132 845 1
E 133 134 2
E 133 140 1
E 133 848 1
E 134 847 1
E 134 853 1
E 135 136 1
E 135 142 1
E 135 853 1
E 135 858 1
E 136 137 1
E 136 143 1
E 136 862 1
E 137 144 1
E 138 139 1
E 138 809 8
E 138 842 1
E 139 140 1
E 140 847 2
E 141 142 1
E 141 828 8
E 141 847 1
E 141 853 1
E 142 143 1
E 143 144 1
E 144 837 8
E 145 971 1
E 145 972 1
E 146 638 1
E 146 639 1
E 146 649 1
E 147 632 8
E 147 688 2
E 148 356 5
E 148 382 1
E 148 383 1
E 149 150 1
E 149 161 1
E 149 366 5
E 149 390 1
E 150 151 1
E 150 162 1
E 150 372 5
E 151 376 5
E 151 408 1
E 151 409 1
E 152 153 1
E 152 383 1
E 152 416 5
E 153 154 1
E 153 159 1
E 154 155 1
E 154 160 1
E 155 161 1
E 155 410 1
E 155 443 8
E 156 157 1
E 156 409 1
E 156 410 1
E 156 458 8
E 157 158 1
E 157 163 1
E 158 164 1
E 159 160 1
E 159 382 1
E 159 383 1
E 160 161 1
E 160 390 1
E 161 162 1
E 162 409 1
E 162 410 1
E 163 164 1
E 163 408 1
E 163 409 1
E 164 415 1
E 165 166 1
E 166 167 1
E 167 168 1
E 167 176 9
E 168 172 5
E 168 179 10
E 169 171 2
E 169 178 6
E 170 173 1
E 170 174 2
E 171 181 6
E 171 238 30
E 172 192 10
E 173 175 2
E 174 175 1
E 174 180 4
E 175 177 1
E 175 183 4
E 176 178 1
E 176 193 7
E 177 182 3
E 177 188 4
E 178 179 1
E 178 181 2
E 179 186 2
E 179 192 5
E 180 183 1
E 180 184 1
E 181 185 1
E 181 186 1
E 182 187 1
E 182 194 4
E 183 188 1
E 183 189 1
E 184 189 1
E 184 210 10
E 185 205 7
E 185 250 29
E 186 198 5
E 186 255 31
E 187 190 1
E 187 196 4
E 188 191 1
E 188 194 3
E 189 191 1
E 189 213 10
E 190 199 4
E 190 200 4
E 191 197 3
E 191 216 10
E 192 195 1
E 192 198 2
E 193 195 1
E 193 199 2
E 194 196 1
E 194 197 1
E 195 202 2
E 195 203 2
E 196 200 1
E 196 201 1
E 197 201 1
E 197 224 10
E 198 202 1
E 198 262 30
E 199 203 1
E 199 209 4
E 200 204 1
E 200 209 4
E 201 204 1
E 201 225 10
E 202 205 1
E 202 206 2
E 203 206 2
E 203 211 4
E 204 212 4
E 204 227 10
E 205 208 2
E 205 266 29
E 206 208 1
E 206 218 4
E 207 226 7
E 208 220 4
E 209 211 1
E 209 212 1
E 210 213 1
E 210 214 1
E 211 215 1
E 211 218 2
E 212 215 1
E 212 230 10
E 213 216 1
E 213 217 1
E 214 217 1
E 214 226 5
E 215 221 2
E 215 232 10
E 216 219 1
E 216 224 3
E 217 219 1
E 217 228 5
E 218 220 1
E 218 221 1
E 219 229 5
E 219 235 10
E 220 223 1
E 220 279 29
E 221 223 1
E 221 239 10
E 223 242 10
E 223 283 29
E 224 225 1
E 224 231 6
E 225 227 1
E 225 233 6
E 226 228 1
E 226 234 6
E 227 230 4
E 227 236 6
E 228 229 1
E 228 237 6
E 229 231 3
E 229 240 6
E 230 232 1
E 230 245 6
E 231 233 1
E 231 246 6
E 232 235 1
E 232 239 2
E 233 236 1
E 233 248 6
E 234 237 1
E 234 254 9
E 235 243 2
E 235 247 5
E 236 245 4
E 236 249 6
E 237 240 1
E 237 256 9
E 238 250 6
E 239 242 1
E 239 243 1
E 240 246 3
E 240 258 9
E 241 254 7
E 242 244 1
E 242 308 29
E 243 244 1
E 243 251 5
E 244 253 5
E 244 329 36
E 245 247 1
E 245 257 6
E 246 248 1
E 246 264 9
E 247 251 2
E 247 260 6
E 248 249 1
E 248 268 9
E 249 257 4
E 249 271 9
E 250 252 1
E 250 262 6
E 251 253 1
E 251 263 6
E 252 255 1
E 253 267 6
E 253 324 29
E 254 256 1
E 255 259 2
E 255 265 5
E 256 258 1
E 257 260 1
E 257 278 9
E 258 264 3
E 259 273 5
E 259 298 15
E 260 263 2
E 260 280 9
E 261 276 6
E 261 304 17
E 262 265 1
E 262 266 1
E 263 267 1
E 263 285 9
E 264 268 1
E 264 269 1
E 265 270 1
E 265 273 2
E 266 270 1
E 267 288 9
E 267 346 29
E 268 271 1
E 268 272 1
E 269 272 1
E 269 289 9
E 270 275 2
E 271 274 1
E 271 278 4
E 272 274 1
E 272 294 9
E 273 275 1
E 273 307 15
E 274 281 4
E 274 297 9
E 275 277 2
E 275 310 15
E 276 290 5
E 276 314 14
E 277 286 4
E 277 287 4
E 277 315 15
E 278 280 1
E 278 281 1
E 279 282 1
E 279 283 1
E 280 285 2
E 282 284 1
E 282 287 2
E 283 284 1
E 283 308 10
E 284 292 2
E 284 312 10
E 285 288 1
E 286 291 1
E 287 292 1
E 288 293 1
E 288 388 29
E 289 294 1
E 289 303 6
E 290 295 1
E 291 296 1
E 291 299 2
E 292 300 2
E 292 316 10
E 293 396 29
E 294 297 1
E 294 306 6
E 295 298 1
E 296 301 2
E 296 304 5
E 297 309 6
E 298 307 5
E 298 331 14
E 299 301 1
E 301 302 1
E 302 311 4
E 302 328 11
E 303 306 1
E 304 311 2
E 304 319 5
E 305 313 2
E 305 322 6
E 306 309 1
E 307 310 1
E 307 411 26
E 308 312 1
E 308 324 6
E 309 320 4
E 310 315 2
E 310 417 26
E 311 323 5
E 312 316 2
E 312 327 6
E 314 318 2
E 314 331 7
E 315 321 2
E 315 423 26
E 316 333 6
E 317 330 5
E 317 478 34
E 318 340 7
E 318 353 10
E 319 321 1
E 319 323 2
E 320 322 1
E 320 334 5
E 321 325 2
E 322 338 5
E 323 325 1
E 323 326 1
E 324 327 1
E 324 346 6
E 325 332 2
E 327 333 2
E 327 351 6
E 328 355 6
E 329 349 5
E 329 350 5
E 330 352 5
E 330 479 29
E 331 340 2
E 332 336 1
E 332 337 1
E 333 342 2
E 334 338 1
E 334 358 6
E 335 339 1
E 336 341 1
E 336 344 2
E 337 341 1
E 337 379 10
E 338 347 2
E 338 361 6
E 339 343 1
E 341 348 2
E 341 386 10
E 342 345 1
E 342 364 6
E 343 358 4
E 343 365 6
E 344 348 1
E 344 354 2
E 345 350 1
E 345 370 6
E 346 351 1
E 346 388 9
E 347 352 1
E 347 371 6
E 348 357 2
E 348 399 10
E 349 368 5
E 349 369 5
E 350 355 1
E 350 374 6
E 351 364 4
E 351 395 9
E 352 375 6
E 352 542 34
E 353 356 1
E 354 357 1
E 354 385 7
E 355 369 4
E 355 380 6
E 356 360 1
E 357 393 7
E 357 407 10
E 358 361 1
E 359 362 1
E 359 363 1
E 360 363 1
E 360 382 5
E 361 371 2
E 362 366 1
E 363 366 1
E 363 390 5
E 364 370 1
E 364 414 9
E 366 372 1
E 367 373 1
E 367 379 2
E 368 373 1
E 368 400 5
E 369 400 5
E 369 406 6
E 370 374 1
E 370 418 9
E 371 375 1
E 372 376 1
E 373 387 2
E 373 405 5
E 374 380 1
E 374 421 9
E 376 381 1
E 377 384 1
E 378 384 1
E 378 385 1
E 379 386 1
E 379 387 1
E 380 406 4
E 380 425 9
E 381 389 1
E 381 408 5
E 382 390 1
E 384 391 1
E 384 392 1
E 385 392 1
E 385 393 1
E 386 394 1
E 386 399 2
E 387 394 1
E 387 413 5
E 388 395 1
E 388 396 1
E 389 402 2
E 389 415 5
E 391 397 1
E 391 434 9
E 392 397 1
E 392 398 1
E 393 398 1
E 393 441 10
E 394 404 2
E 395 401 1
E 395 414 4
E 396 401 1
E 396 436 9
E 397 403 1
E 397 440 9
E 398 403 1
E 398 448 10
E 399 404 1
E 399 407 2
E 400 405 1
E 400 424 6
E 401 419 4
E 401 442 9
E 402 427 6
E 403 447 9
E 403 455 10
E 404 412 2
E 405 413 2
E 405 430 6
E 406 424 5
E 406 451 9
E 407 412 1
E 407 441 7
E 408 415 1
E 411 416 1
E 411 417 1
E 412 435 5
E 412 449 7
E 414 418 1
E 414 419 1
E 416 420 1
E 417 420 1
E 417 423 2
E 418 421 1
E 418 422 1
E 419 422 1
E 419 469 9
E 420 428 2
E 421 425 1
E 421 426 1
E 422 426 1
E 422 477 9
E 423 428 1
E 423 433 2
E 424 430 1
E 424 487 9
E 425 431 1
E 425 451 4
E 426 431 1
E 426 488 9
E 427 432 1
E 427 457 5
E 428 438 2
E 429 433 1
E 429 434 1
E 430 498 9
E 431 456 4
E 431 500 9
E 432 437 1
E 432 464 5
E 433 438 1
E 433 439 1
E 434 439 1
E 434 440 1
E 435 486 7
E 436 442 1
E 436 479 6
E 437 470 5
E 437 603 33
E 438 444 1
E 438 445 1
E 439 445 1
E 439 446 1
E 440 446 1
E 440 447 1
E 441 448 1
E 441 449 1
E 442 469 4
E 442 490 6
E 443 459 2
E 444 452 1
E 445 452 1
E 445 453 1
E 446 453 1
E 446 454 1
E 447 454 1
E 447 517 10
E 448 455 1
E 449 486 5
E 450 463 2
E 451 456 1
E 451 487 5
E 452 460 1
E 452 461 1
E 453 461 1
E 453 462 1
E 454 462 1
E 454 522 10
E 455 517 9
E 456 499 5
E 456 519 9
E 457 464 1
E 457 465 1
E 458 473 2
E 459 466 1
E 460 466 1
E 460 467 1
E 461 467 1
E 461 468 1
E 462 468 1
E 462 527 10
E 464 470 1
E 464 471 1
E 465 471 1
E 465 472 1
E 466 474 1
E 466 475 1
E 467 475 1
E 467 476 1
E 468 476 1
E 468 533 10
E 469 477 1
E 469 478 1
E 470 480 1
E 470 616 33
E 471 480 1
E 471 481 1
E 472 481 1
E 472 526 8
E 473 482 1
E 473 483 1
E 474 483 1
E 474 484 1
E 475 484 1
E 475 485 1
E 476 485 1
E 476 539 10
E 477 488 1
E 477 489 1
E 478 489 1
E 478 515 5
E 479 490 1
E 480 491 1
E 481 491 1
E 481 532 8
E 482 493 1
E 482 494 1
E 483 494 1
E 483 495 1
E 484 495 1
E 484 496 1
E 485 496 1
E 485 544 10
E 486 497 1
E 486 524 6
E 487 498 1
E 487 499 1
E 488 500 1
E 488 501 1
E 489 501 1
E 489 520 5
E 490 515 4
E 491 537 8
E 491 623 33
E 492 508 2
E 492 526 6
E 493 502 1
E 493 508 2
E 494 502 1
E 494 503 1
E 495 503 1
E 495 504 1
E 496 504 1
E 496 550 10
E 497 505 1
E 497 529 6
E 498 506 1
E 498 511 2
E 499 506 1
E 499 546 9
E 500 507 1
E 500 519 4
E 501 507 1
E 501 525 5
E 502 509 1
E 502 512 2
E 503 509 1
E 503 510 1
E 504 510 1
E 504 556 10
E 505 535 6
E 505 551 9
E 506 514 2
E 507 531 5
E 507 640 35
E 508 512 1
E 508 538 6
E 509 513 1
E 509 516 2
E 510 513 1
E 510 561 10
E 511 514 1
E 512 516 1
E 513 521 2
E 513 565 10
E 514 518 1
E 514 563 9
E 515 520 1
E 515 542 5
E 516 521 1
E 516 549 6
E 517 522 1
E 517 523 1
E 518 530 2
E 518 567 9
E 519 546 5
E 519 552 6
E 520 525 1
E 521 555 6
E 521 570 10
E 522 527 1
E 522 528 1
E 523 528 1
E 523 551 5
E 524 529 1
E 524 569 9
E 525 531 1
E 525 553 5
E 526 532 1
E 526 538 2
E 527 533 1
E 527 534 1
E 528 534 1
E 528 557 5
E 529 535 1
E 529 572 9
E 530 541 2
E 530 573 9
E 531 552 4
E 531 558 5
E 532 537 1
E 532 543 2
E 533 539 1
E 533 540 1
E 534 540 1
E 534 562 5
E 535 578 9
E 535 579 9
E 536 541 1
E 536 569 7
E 537 547 2
E 537 659 33
E 538 543 1
E 539 544 1
E 539 545 1
E 540 545 1
E 540 566 5
E 541 582 9
E 543 547 1
E 543 548 1
E 544 550 1
E 545 568 5
E 546 563 3
E 546 574 6
E 547 670 33
E 548 554 1
E 549 554 1
E 549 555 1
E 550 556 1
E 551 557 1
E 551 578 6
E 552 574 5
E 553 558 1
E 554 559 1
E 554 560 1
E 555 560 1
E 555 576 5
E 556 561 1
E 556 580 6
E 557 562 1
E 557 581 6
E 558 669 39
E 559 564 1
E 559 642 25
E 560 564 1
E 561 565 1
E 561 583 6
E 562 566 1
E 562 584 6
E 563 567 1
E 563 585 6
E 564 648 25
E 565 570 2
E 565 586 6
E 566 568 1
E 566 587 6
E 567 573 2
E 567 588 6
E 568 571 1
E 568 589 6
E 569 572 1
E 570 590 6
E 570 591 6
E 571 577 1
E 571 592 6
E 572 579 1
E 573 582 2
E 573 593 6
E 574 585 3
E 576 590 5
E 576 674 27
E 577 580 1
E 577 595 6
E 578 581 1
E 578 602 9
E 579 602 9
E 580 583 1
E 580 597 6
E 581 584 1
E 581 604 9
E 582 598 6
E 583 586 1
E 583 600 6
E 584 587 1
E 584 607 9
E 585 588 1
E 586 591 2
E 586 601 6
E 587 589 1
E 587 609 9
E 588 593 2
E 589 592 1
E 589 612 9
E 590 594 1
E 591 605 6
E 591 606 6
E 592 595 1
E 592 614 9
E 593 598 2
E 594 596 1
E 594 605 5
E 595 597 1
E 595 617 9
E 596 599 1
E 596 608 5
E 597 600 1
E 597 620 9
E 598 664 18
E 599 611 5
E 599 717 25
E 600 601 1
E 600 625 9
E 601 606 2
E 601 629 9
E 602 604 1
E 603 616 5
E 604 607 1
E 605 608 1
E 605 624 6
E 606 624 6
E 606 637 9
E 607 609 1
E 607 610 1
E 608 611 1
E 608 628 6
E 609 612 1
E 609 613 1
E 610 613 1
E 610 638 8
E 611 633 6
E 611 742 25
E 612 614 1
E 612 615 1
E 613 615 1
E 613 643 8
E 614 617 1
E 614 618 1
E 615 618 1
E 615 694 15
E 616 619 1
E 617 620 1
E 617 621 1
E 618 621 1
E 618 653 8
E 619 622 1
E 620 625 1
E 620 712 16
E 621 657 8
E 621 676 11
E 622 626 1
E 622 627 1
E 623 627 1
E 623 659 8
E 624 628 1
E 624 667 9
E 625 629 1
E 625 718 16
E 626 631 1
E 626 632 1
E 627 632 1
E 628 633 1
E 628 675 9
E 629 637 2
E 629 723 16
E 630 634 1
E 631 635 1
E 632 635 1
E 633 684 9
E 633 770 25
E 634 638 1
E 634 639 1
E 635 645 2
E 636 641 1
E 636 642 1
E 637 667 6
E 637 733 16
E 638 643 1
E 639 644 1
E 640 644 1
E 640 664 5
E 641 646 1
E 641 647 1
E 642 647 1
E 642 648 1
E 643 653 2
E 644 649 1
E 645 696 8
E 646 650 1
E 646 651 1
E 647 651 1
E 647 652 1
E 648 652 1
E 648 674 5
E 649 654 1
E 649 677 5
E 650 655 1
E 650 660 2
E 651 655 1
E 651 656 1
E 652 656 1
E 652 683 5
E 653 657 1
E 653 658 1
E 654 663 2
E 654 686 5
E 655 661 1
E 655 666 2
E 656 661 1
E 656 692 5
E 657 662 1
E 657 728 11
E 658 662 1
E 658 663 1
E 659 670 2
E 660 665 1
E 660 666 1
E 661 673 2
E 661 701 5
E 662 668 1
E 662 732 11
E 663 668 1
E 663 702 5
E 664 669 1
E 665 671 1
E 665 672 1
E 666 672 1
E 666 673 1
E 667 675 1
E 667 676 1
E 668 706 5
E 668 738 11
E 669 678 1
E 670 679 1
E 670 680 1
E 671 680 1
E 671 681 1
E 672 681 1
E 672 682 1
E 673 682 1
E 673 710 5
E 674 683 1
E 674 711 5
E 675 684 1
E 675 685 1
E 676 685 1
E 676 728 8
E 677 686 1
E 677 687 1
E 678 687 1
E 679 688 1
E 679 689 1
E 680 689 1
E 680 690 1
E 681 690 1
E 681 691 1
E 682 691 1
E 682 715 5
E 683 692 1
E 683 716 5
E 684 693 1
E 684 801 25
E 685 693 1
E 685 731 8
E 686 694 1
E 686 695 1
E 687 695 1
E 688 697 1
E 688 698 1
E 689 698 1
E 689 699 1
E 690 699 1
E 690 700 1
E 691 700 1
E 691 720 5
E 692 701 1
E 692 721 5
E 693 736 8
E 693 805 25
E 694 702 1
E 696 707 2
E 697 703 1
E 697 707 2
E 698 703 1
E 698 704 1
E 699 704 1
E 699 705 1
E 700 705 1
E 700 725 5
E 701 710 2
E 701 726 5
E 702 706 1
E 703 708 1
E 703 713 2
E 704 708 1
E 704 709 1
E 705 709 1
E 705 729 5
E 706 712 1
E 707 713 1
E 708 714 1
E 708 719 2
E 709 714 1
E 709 734 5
E 710 715 1
E 710 735 5
E 711 716 1
E 711 717 1
E 712 718 1
E 713 719 1
E 713 739 5
E 714 724 2
E 714 764 10
E 715 720 1
E 715 740 5
E 716 721 1
E 716 722 1
E 717 722 1
E 717 742 5
E 718 723 1
E 719 724 1
E 720 725 1
E 720 746 5
E 721 726 1
E 721 727 1
E 722 727 1
E 722 748 5
E 723 733 2
E 724 750 5
E 724 751 5
E 725 729 1
E 725 752 5
E 726 730 1
E 726 735 2
E 727 730 1
E 727 754 5
E 728 731 1
E 728 732 1
E 729 734 1
E 729 757 5
E 730 741 2
E 730 759 5
E 731 736 1
E 731 737 1
E 732 737 1
E 732 738 1
E 733 763 6
E 734 751 3
E 734 761 5
E 735 740 1
E 735 741 1
E 736 743 1
E 737 743 1
E 737 744 1
E 738 744 1
E 738 763 5
E 739 745 1
E 740 746 1
E 740 747 1
E 741 747 1
E 741 766 5
E 742 748 1
E 742 770 6
E 743 749 1
E 744 749 1
E 744 767 5
E 746 752 1
E 746 753 1
E 747 753 1
E 747 769 5
E 748 754 1
E 748 775 6
E 749 771 5
E 750 756 1
E 750 772 5
E 751 772 5
E 751 773 5
E 752 757 1
E 752 758 1
E 753 758 1
E 753 774 5
E 754 759 1
E 754 779 6
E 755 760 1
E 756 760 1
E 756 776 5
E 757 761 1
E 757 762 1
E 758 762 1
E 758 778 5
E 759 766 2
E 759 782 6
E 760 780 5
E 760 831 20
E 761 764 1
E 761 765 1
E 762 765 1
E 762 781 5
E 763 767 1
E 764 768 1
E 764 773 2
E 765 768 1
E 765 783 5
E 766 769 1
E 766 785 6
E 767 771 1
E 768 777 2
E 768 784 5
E 769 774 1
E 769 787 6
E 770 775 1
E 770 788 6
E 771 854 25
E 772 776 1
E 772 786 5
E 773 777 1
E 773 786 5
E 774 778 1
E 774 791 6
E 775 779 1
E 775 792 6
E 776 780 1
E 776 789 5
E 777 790 5
E 778 781 1
E 778 795 6
E 779 782 1
E 779 796 6
E 780 794 5
E 780 846 20
E 781 783 1
E 781 798 6
E 782 785 2
E 782 799 6
E 783 784 1
E 783 802 6
E 784 790 2
E 784 806 6
E 785 787 1
E 785 807 6
E 786 789 1
E 787 791 1
E 787 811 6
E 788 792 1
E 788 793 1
E 789 794 1
E 790 810 5
E 790 815 6
E 791 795 1
E 791 816 6
E 792 796 1
E 792 797 1
E 793 797 1
E 793 801 2
E 795 798 1
E 795 819 6
E 796 799 1
E 796 800 1
E 797 800 1
E 797 804 2
E 798 802 1
E 798 822 6
E 799 803 1
E 799 807 2
E 800 803 1
E 800 808 2
E 801 804 1
E 801 805 1
E 802 806 1
E 802 825 6
E 803 812 2
E 803 813 2
E 804 808 1
E 804 809 1
E 805 809 1
E 806 815 2
E 806 840 9
E 807 811 1
E 807 812 1
E 808 813 1
E 810 814 1
E 810 832 6
E 811 816 1
E 811 817 1
E 812 817 1
E 812 821 2
E 813 821 2
E 814 818 1
E 814 835 6
E 815 832 5
E 815 844 9
E 816 819 1
E 816 820 1
E 817 820 1
E 817 824 2
E 818 839 6
E 819 822 1
E 819 823 1
E 820 823 1
E 820 827 2
E 821 824 1
E 822 825 1
E 822 826 1
E 823 826 1
E 823 830 2
E 824 827 1
E 824 828 1
E 825 829 1
E 825 850 8
E 826 829 1
E 826 833 2
E 827 830 1
E 829 836 2
E 829 903 30
E 830 833 1
E 831 834 1
E 831 846 5
E 832 835 1
E 832 850 6
E 833 836 1
E 833 837 1
E 834 838 1
E 834 849 5
E 835 839 1
E 835 852 6
E 836 840 1
E 836 841 1
E 837 841 1
E 838 851 5
E 838 864 9
E 839 855 6
E 839 888 20
E 840 843 1
E 840 844 2
E 841 843 1
E 843 861 7
E 843 883 15
E 844 857 5
E 844 885 16
E 845 848 1
E 845 859 5
E 846 849 1
E 846 865 6
E 848 863 5
E 849 851 1
E 849 870 6
E 850 852 1
E 850 857 3
E 851 873 6
E 851 884 13
E 852 855 1
E 852 860 3
E 854 856 1
E 855 866 3
E 856 859 1
E 857 860 1
E 857 861 1
E 858 862 1
E 858 876 5
E 859 863 1
E 860 866 1
E 860 867 1
E 861 867 1
E 861 894 15
E 862 878 5
E 863 868 1
E 863 872 2
E 864 869 1
E 865 870 1
E 866 871 1
E 866 908 20
E 867 871 1
E 867 896 15
E 869 875 2
E 869 902 16
E 870 873 1
E 871 900 15
E 871 910 20
E 872 874 1
E 873 895 13
E 874 876 1
E 875 877 1
E 875 904 16
E 876 878 1
E 877 879 1
E 877 884 5
E 878 880 1
E 879 882 2
E 879 886 5
E 880 881 1
E 881 883 1
E 882 887 4
E 882 890 5
E 883 885 2
E 884 886 1
E 884 895 6
E 885 894 5
E 886 890 2
E 886 897 6
E 887 889 1
E 888 891 1
E 889 893 2
E 889 901 5
E 890 915 11
E 891 892 1
E 892 899 3
E 892 912 9
E 893 962 24
E 894 896 1
E 895 897 1
E 895 907 5
E 896 900 1
E 897 911 6
E 898 902 1
E 898 912 6
E 899 905 3
E 899 920 9
E 900 958 20
E 902 904 2
E 902 916 6
E 903 906 1
E 903 908 2
E 904 907 1
E 904 919 6
E 905 926 9
E 906 909 2
E 908 909 1
E 908 910 1
E 909 913 1
E 909 914 1
E 910 914 1
E 910 930 8
E 911 922 5
E 912 916 1
E 912 920 3
E 913 917 1
E 913 937 9
E 914 917 1
E 914 934 8
E 915 922 4
E 916 919 2
E 916 921 3
E 917 938 8
E 917 945 9
E 918 931 5
E 919 925 3
E 920 921 1
E 920 926 3
E 921 925 2
E 921 928 3
E 922 924 1
E 922 948 6
E 923 932 3
E 924 931 2
E 924 952 6
E 925 927 1
E 925 936 3
E 926 928 1
E 926 929 1
E 927 932 1
E 927 942 3
E 928 933 1
E 928 936 2
E 929 933 1
E 929 937 2
E 930 934 1
E 930 935 1
E 931 955 6
E 932 941 2
E 932 949 3
E 933 943 2
E 933 944 2
E 934 938 1
E 934 939 1
E 935 939 1
E 935 940 1
E 936 942 1
E 936 943 1
E 937 944 1
E 937 945 1
E 938 946 1
E 938 965 9
E 939 946 1
E 939 947 1
E 940 947 1
E 940 958 5
E 941 956 4
E 942 949 1
E 942 950 1
E 943 950 1
E 943 954 2
E 944 954 2
E 945 965 8
E 946 951 1
E 947 951 1
E 947 961 5
E 948 952 1
E 948 956 3
E 949 953 1
E 950 953 1
E 951 963 5
E 951 968 9
E 952 955 2
E 952 959 3
E 955 964 3
E 956 959 1
E 957 960 1
E 957 971 8
E 958 961 1
E 959 964 2
E 960 973 8
E 961 963 1
E 963 974 9
E 965 966 1
E 966 967 1
E 966 969 2
E 967 970 1
E 967 972 2
E 968 970 1
E 968 974 5
E 969 971 1
E 969 972 1
E 971 973 1
E 1 975 100000
E 2 975 100000
E 3 975 100000
E 4 976 100000
E 5 976 100000
E 6 977 100000
E 7 977 100000
E 8 978 100000
E 9 978 100000
E 10 979 100000
E 11 979 100000
E 12 979 100000
E 13 979 100000
E 14 979 100000
E 15 979 100000
E 16 979 100000
E 17 979 100000
E 18 980 100000
E 19 980 100000
E 20 980 100000
E 21 980 100000
E 22 981 100000
E 23 981 100000
E 24 981 100000
E 25 981 100000
E 26 981 100000
E 27 982 100000
E 28 982 100000
E 29 982 100000
E 30 982 100000
E 31 982 100000
E 32 983 100000
E 33 983 100000
E 34 983 100000
E 35 983 100000
E 36 983 100000
E 37 984 100000
E 38 984 100000
E 39 984 100000
E 40 984 100000
E 41 984 100000
E 42 985 100000
E 43 985 100000
E 44 985 100000
E 45 985 100000
E 46 985 100000
E 47 986 100000
E 48 986 100000
E 49 986 100000
E 50 986 100000
E 51 986 100000
E 52 986 100000
E 53 987 100000
E 54 987 100000
E 55 987 100000
E 56 987 100000
E 57 988 100000
E 58 988 100000
E 59 989 100000
E 60 989 100000
E 61 990 100000
E 62 990 100000
E 63 991 100000
E 64 991 100000
E 65 991 100000
E 66 992 100000
E 67 992 100000
E 68 993 100000
E 69 993 100000
E 70 994 100000
E 71 994 100000
E 72 995 100000
E 73 995 100000
E 74 995 100000
E 75 995 100000
E 76 996 100000
E 77 996 100000
E 78 996 100000
E 79 996 100000
E 80 997 100000
E 81 997 100000
E 82 997 100000
E 83 997 100000
E 84 998 100000
E 85 998 100000
E 86 999 100000
E 87 999 100000
E 88 1000 100000
E 89 1000 100000
E 90 1001 100000
E 91 1001 100000
E 92 1002 100000
E 93 1002 100000
E 94 1003 100000
E 95 1003 100000
E 96 1003 100000
E 97 1003 100000
E 98 1003 100000
E 99 1004 100000
E 100 1004 100000
E 101 1004 100000
E 102 1004 100000
E 103 1004 100000
E 104 1004 100000
E 105 1004 100000
E 106 1004 100000
E 107 1005 100000
E 108 1005 100000
E 109 1005 100000
E 110 1005 100000
E 111 1005 100000
E 112 1006 100000
E 113 1006 100000
E 114 1006 100000
E 115 1006 100000
E 116 1007 100000
E 117 1007 100000
E 118 1008 100000
E 119 1008 100000
E 120 1009 100000
E 121 1009 100000
E 122 1010 100000
E 123 1010 100000
E 124 1010 100000
E 125 1010 100000
E 126 1011 100000
E 127 975 100000
E 128 979 100000
E 129 979 100000
E 130 979 100000
E 131 979 100000
E 132 980 100000
E 133 980 100000
E 134 980 100000
E 135 980 100000
E 136 980 100000
E 137 980 100000
E 138 981 100000
E 139 981 100000
E 140 981 100000
E 141 981 100000
E 142 981 100000
E 143 981 100000
E 144 981 100000
E 145 982 100000
E 146 983 100000
E 147 1003 100000
E 148 1004 100000
E 149 1004 100000
E 150 1004 100000
E 151 1004 100000
E 152 1005 100000
E 153 1005 100000
E 154 1005 100000
E 155 1005 100000
E 156 1005 100000
E 157 1005 100000
E 158 1005 100000
E 159 1010 100000
E 160 1010 100000
E 161 1010 100000
E 162 1010 100000
E 163 1010 100000
E 164 1010 100000
END

SECTION Terminals
Terminals 37
T 975
T 976
T 977
T 978
T 979
T 980
T 981
T 982
T 983
T 984
T 985
T 986
T 987
T 988
T 989
T 990
T 991
T 992
T 993
T 994
T 995
T 996
T 997
T 998
T 999
T 1000
T 1001
T 1002
T 1003
T 1004
T 1005
T 1006
T 1007
T 1008
T 1009
T 1010
T 1011
END

EOF
